Medium-instances_NetworkFacilityLocation/2023-03-27_20hr-25min-09sec/Nodes20_Arcs35_LocNodes15/Formulation-2Instance-4.lp
\ Model LocPrice
\ LP format - for model browsing. Use MPS format to capture full model detail.
Maximize
  - 196 x[1] - 188 x[2] - 158 x[7] - 193 x[8] - 177 x[9] - 178 x[10]
   - 180 x[12] - 166 x[13] - 174 x[14] - 192 x[15] - 156 x[16] - 170 x[17]
   - 173 x[18] - 193 x[19] - 179 x[20] - 3.708264016984301 Q[1]
   - 4.450430875203942 Q[2] - 4.627419109328146 Q[7]
   - 4.995748224732589 Q[8] - 3.914944427793353 Q[9]
   - 3.401424033255205 Q[10] - 3.516461477936134 Q[12]
   - 3.763353987853388 Q[13] - 3.142809870399533 Q[14]
   - 4.386157060074066 Q[15] - 3.113711974691876 Q[16]
   - 3.929909847168807 Q[17] - 4.995984281287198 Q[18]
   - 3.806554742991029 Q[19] - 3.421073763656208 Q[20]
   - 2.499225967972346 f[2,1] - 2.018711436501091 f[3,2]
   - 2.596840906991276 f[4,3] - 1.497299003624349 f[5,3]
   - 0.846711477757682 f[6,5] - 1.673716189237822 f[7,2]
   - 1.48671126893945 f[8,3] - 0.6290061205727866 f[9,2]
   - 2.01888610586512 f[10,1] - 2.192497347250587 f[11,5]
   - 0.7919770768983878 f[12,7] - 0.4910788498831643 f[13,12]
   - 1.744020542085414 f[14,2] - 1.377264550809604 f[15,14]
   - 2.17446366615949 f[16,11] - 2.232323824712442 f[17,8]
   - 0.0579076555077087 f[18,6] - 0.6314291944408116 f[19,13]
   - 2.599513838196248 f[20,9] - 2.43091864199173 f[9,16]
   - 1.121738649761798 f[9,11] - 2.521159344901314 f[10,8]
   - 1.633122595045326 f[19,5] - 0.9994989790438186 f[4,14]
   - 1.881878346218915 f[14,20] - 0.2042980154255927 f[4,20]
   - 1.67535816339547 f[9,3] - 0.576168823743575 f[1,11]
   - 0.7494090731007818 f[14,7] - 1.591129998398542 f[8,9]
   - 2.37204139807092 f[10,7] - 2.020074701487551 f[10,9]
   - 1.287185876615631 f[6,13] - 2.441979734682798 f[5,10]
   - 0.4616757557903093 f[13,10] + 1482 D[6] + 1368 D[7] + 1398 D[10]
   + 1437 D[11] + 1413 D[12] + 1374 D[13] + 1305 D[16] + 1306 D[18]
   + 1460 D[19] + 1353 D[20] - 1.672325536730232 S[1]
   - 1.7900624198371 S[3] - 1.744237636094756 S[4] - 1.594003960514337 S[5]
   - 1.323540971414262 S[6] - 1.285765823808691 S[10]
   - 1.620852086194012 S[11] - 1.617821282017934 S[12]
   - 1.918550279455071 S[16] - 1.625649607767975 S[20] + [
   - 1.63455211606002 f[2,1] ^2 - 1.045122849647357 f[3,2] ^2
   - 0.808256828709395 f[4,3] ^2 - 1.043489720969649 f[5,3] ^2
   - 1.225419700835694 f[6,5] ^2 - 1.829114455901909 f[7,2] ^2
   - 1.132140764514869 f[8,3] ^2 - 2.55559192421665 f[9,2] ^2
   - 3.429345761837611 f[10,1] ^2 - 0.0967366508063252 f[11,5] ^2
   - 1.861123330359964 f[12,7] ^2 - 2.466339463493878 f[13,12] ^2
   - 1.899947482926359 f[14,2] ^2 - 2.643774395234759 f[15,14] ^2
   - 0.8209224923805731 f[16,11] ^2 - 3.740142353581334 f[17,8] ^2
   - 3.983646211544064 f[18,6] ^2 - 3.315642084641786 f[19,13] ^2
   - 2.338227929187493 f[20,9] ^2 - 1.725152592665733 f[9,16] ^2
   - 1.818258589476129 f[9,11] ^2 - 1.14736753824848 f[10,8] ^2
   - 1.49343481620876 f[19,5] ^2 - 3.708560658007658 f[4,14] ^2
   - 1.296422942677315 f[14,20] ^2 - 3.425799017682394 f[4,20] ^2
   - 2.11790287736107 f[9,3] ^2 - 3.948258724031303 f[1,11] ^2
   - 3.843839226487902 f[14,7] ^2 - 2.137595847072109 f[8,9] ^2
   - 3.150548158648203 f[10,7] ^2 - 1.481722076847889 f[10,9] ^2
   - 2.008487906247128 f[6,13] ^2 - 2.361716178986383 f[5,10] ^2
   - 3.633565951904099 f[13,10] ^2 - 7.875850717804353 D[6] ^2
   - 7.913229419949531 D[7] ^2 - 7.804452851323907 D[10] ^2
   - 7.370756476645192 D[11] ^2 - 6.354189070577863 D[12] ^2
   - 6.398255782962086 D[13] ^2 - 6.754238837000127 D[16] ^2
   - 6.350267894033739 D[18] ^2 - 7.895806569517586 D[19] ^2
   - 6.884527258629602 D[20] ^2 - 1.133224119132227 S[1] ^2
   - 0.0336638080502567 S[3] ^2 - 1.320469891295889 S[4] ^2
   - 1.757853264202687 S[5] ^2 - 1.280931103141499 S[6] ^2
   - 1.03928666370581 S[10] ^2 - 0.6764994871704619 S[11] ^2
   - 1.987436088911866 S[12] ^2 - 0.5873479209612289 S[16] ^2
   - 1.562368007822657 S[20] ^2 ] / 2 
Subject To
 R0: Q[1] + Q[2] + Q[7] + Q[8] + Q[9] + Q[10] + Q[12] + Q[13] + Q[14]
   + Q[15] + Q[16] + Q[17] + Q[18] + Q[19] + Q[20] <= 1312
 R1: - 189 x[1] + Q[1] <= 0
 R2: - 137 x[2] + Q[2] <= 0
 R3: - 108 x[7] + Q[7] <= 0
 R4: - 177 x[8] + Q[8] <= 0
 R5: - 162 x[9] + Q[9] <= 0
 R6: - 161 x[10] + Q[10] <= 0
 R7: - 134 x[12] + Q[12] <= 0
 R8: - 156 x[13] + Q[13] <= 0
 R9: - 102 x[14] + Q[14] <= 0
 R10: - 184 x[15] + Q[15] <= 0
 R11: - 177 x[16] + Q[16] <= 0
 R12: - 193 x[17] + Q[17] <= 0
 R13: - 142 x[18] + Q[18] <= 0
 R14: - 104 x[19] + Q[19] <= 0
 R15: - 197 x[20] + Q[20] <= 0
 node[2]: - Q[2] + f[2,1] - f[3,2] - f[7,2] - f[9,2] - f[14,2] = 0
 node[8]: - Q[8] + f[8,3] - f[17,8] - f[10,8] + f[8,9] = 0
 node[9]: - Q[9] + f[9,2] - f[20,9] + f[9,16] + f[9,11] + f[9,3] - f[8,9]
   - f[10,9] = 0
 node[14]: - Q[14] + f[14,2] - f[15,14] - f[4,14] + f[14,20] + f[14,7] = 0
 node[15]: - Q[15] + f[15,14] = 0
 node[17]: - Q[17] + f[17,8] = 0
 node[1]: - Q[1] - f[2,1] - f[10,1] + f[1,11] - S[1] = 0
 node[18]: - Q[18] + f[18,6] + D[18] = 0
 node[19]: - Q[19] + f[19,13] + f[19,5] + D[19] = 0
 node[13]: - Q[13] + f[13,12] - f[19,13] - f[6,13] + f[13,10] + D[13] = 0
 node[7]: - Q[7] + f[7,2] - f[12,7] - f[14,7] - f[10,7] + D[7] = 0
 node[16]: - Q[16] + f[16,11] - f[9,16] + D[16] - S[16] = 0
 node[10]: - Q[10] + f[10,1] + f[10,8] + f[10,7] + f[10,9] - f[5,10]
   - f[13,10] + D[10] - S[10] = 0
 node[12]: - Q[12] + f[12,7] - f[13,12] + D[12] - S[12] = 0
 node[20]: - Q[20] + f[20,9] - f[14,20] - f[4,20] + D[20] - S[20] = 0
 node[3]: f[3,2] - f[4,3] - f[5,3] - f[8,3] - f[9,3] - S[3] = 0
 node[4]: f[4,3] + f[4,14] + f[4,20] - S[4] = 0
 node[5]: f[5,3] - f[6,5] - f[11,5] - f[19,5] + f[5,10] - S[5] = 0
 node[11]: f[11,5] - f[16,11] - f[9,11] - f[1,11] + D[11] - S[11] = 0
 node[6]: f[6,5] - f[18,6] + f[6,13] + D[6] - S[6] = 0
 Cost_Flow[2,1]: - pi[1] + pi[2] + 0.8172760580300102 f[2,1] - mu_f[2,1]
   = -2.499225967972346
 Cost_Flow[3,2]: - pi[2] + pi[3] + 0.5225614248236785 f[3,2] - mu_f[3,2]
   = -2.018711436501091
 Cost_Flow[4,3]: - pi[3] + pi[4] + 0.4041284143546975 f[4,3] - mu_f[4,3]
   = -2.596840906991276
 Cost_Flow[5,3]: - pi[3] + pi[5] + 0.5217448604848247 f[5,3] - mu_f[5,3]
   = -1.497299003624349
 Cost_Flow[6,5]: - pi[5] + pi[6] + 0.6127098504178472 f[6,5] - mu_f[6,5]
   = -0.846711477757682
 Cost_Flow[7,2]: - pi[2] + pi[7] + 0.9145572279509544 f[7,2] - mu_f[7,2]
   = -1.673716189237822
 Cost_Flow[8,3]: - pi[3] + pi[8] + 0.5660703822574347 f[8,3] - mu_f[8,3]
   = -1.48671126893945
 Cost_Flow[9,2]: - pi[2] + pi[9] + 1.277795962108325 f[9,2] - mu_f[9,2]
   = -0.6290061205727866
 Cost_Flow[10,1]: - pi[1] + pi[10] + 1.714672880918805 f[10,1] - mu_f[10,1]
   = -2.01888610586512
 Cost_Flow[11,5]: - pi[5] + pi[11] + 0.0483683254031626 f[11,5]
   - mu_f[11,5] = -2.192497347250587
 Cost_Flow[12,7]: - pi[7] + pi[12] + 0.9305616651799822 f[12,7]
   - mu_f[12,7] = -0.7919770768983878
 Cost_Flow[13,12]: - pi[12] + pi[13] + 1.233169731746939 f[13,12]
   - mu_f[13,12] = -0.4910788498831643
 Cost_Flow[14,2]: - pi[2] + pi[14] + 0.9499737414631793 f[14,2]
   - mu_f[14,2] = -1.744020542085414
 Cost_Flow[15,14]: - pi[14] + pi[15] + 1.321887197617379 f[15,14]
   - mu_f[15,14] = -1.377264550809604
 Cost_Flow[16,11]: - pi[11] + pi[16] + 0.4104612461902866 f[16,11]
   - mu_f[16,11] = -2.17446366615949
 Cost_Flow[17,8]: - pi[8] + pi[17] + 1.870071176790667 f[17,8] - mu_f[17,8]
   = -2.232323824712442
 Cost_Flow[18,6]: - pi[6] + pi[18] + 1.991823105772032 f[18,6] - mu_f[18,6]
   = -0.0579076555077087
 Cost_Flow[19,13]: - pi[13] + pi[19] + 1.657821042320893 f[19,13]
   - mu_f[19,13] = -0.6314291944408116
 Cost_Flow[20,9]: - pi[9] + pi[20] + 1.169113964593747 f[20,9] - mu_f[20,9]
   = -2.599513838196248
 Cost_Flow[9,16]: pi[9] - pi[16] + 0.8625762963328663 f[9,16] - mu_f[9,16]
   = -2.43091864199173
 Cost_Flow[9,11]: pi[9] - pi[11] + 0.9091292947380647 f[9,11] - mu_f[9,11]
   = -1.121738649761798
 Cost_Flow[10,8]: - pi[8] + pi[10] + 0.57368376912424 f[10,8] - mu_f[10,8]
   = -2.521159344901314
 Cost_Flow[19,5]: - pi[5] + pi[19] + 0.7467174081043801 f[19,5]
   - mu_f[19,5] = -1.633122595045326
 Cost_Flow[4,14]: pi[4] - pi[14] + 1.854280329003829 f[4,14] - mu_f[4,14]
   = -0.9994989790438186
 Cost_Flow[14,20]: pi[14] - pi[20] + 0.6482114713386573 f[14,20]
   - mu_f[14,20] = -1.881878346218915
 Cost_Flow[4,20]: pi[4] - pi[20] + 1.712899508841197 f[4,20] - mu_f[4,20]
   = -0.2042980154255927
 Cost_Flow[9,3]: - pi[3] + pi[9] + 1.058951438680535 f[9,3] - mu_f[9,3]
   = -1.67535816339547
 Cost_Flow[1,11]: pi[1] - pi[11] + 1.974129362015651 f[1,11] - mu_f[1,11]
   = -0.576168823743575
 Cost_Flow[14,7]: - pi[7] + pi[14] + 1.921919613243951 f[14,7] - mu_f[14,7]
   = -0.7494090731007818
 Cost_Flow[8,9]: pi[8] - pi[9] + 1.068797923536055 f[8,9] - mu_f[8,9]
   = -1.591129998398542
 Cost_Flow[10,7]: - pi[7] + pi[10] + 1.575274079324102 f[10,7] - mu_f[10,7]
   = -2.37204139807092
 Cost_Flow[10,9]: - pi[9] + pi[10] + 0.7408610384239445 f[10,9]
   - mu_f[10,9] = -2.020074701487551
 Cost_Flow[6,13]: pi[6] - pi[13] + 1.004243953123564 f[6,13] - mu_f[6,13]
   = -1.287185876615631
 Cost_Flow[5,10]: pi[5] - pi[10] + 1.180858089493191 f[5,10] - mu_f[5,10]
   = -2.441979734682798
 Cost_Flow[13,10]: - pi[10] + pi[13] + 1.81678297595205 f[13,10]
   - mu_f[13,10] = -0.4616757557903093
 Cost_Demand[6]: pi[6] + 3.937925358902176 D[6] - mu_D[6] = 1482
 Cost_Demand[7]: pi[7] + 3.956614709974766 D[7] - mu_D[7] = 1368
 Cost_Demand[10]: pi[10] + 3.902226425661953 D[10] - mu_D[10] = 1398
 Cost_Demand[11]: pi[11] + 3.685378238322596 D[11] - mu_D[11] = 1437
 Cost_Demand[12]: pi[12] + 3.177094535288932 D[12] - mu_D[12] = 1413
 Cost_Demand[13]: pi[13] + 3.199127891481043 D[13] - mu_D[13] = 1374
 Cost_Demand[16]: pi[16] + 3.377119418500063 D[16] - mu_D[16] = 1305
 Cost_Demand[18]: pi[18] + 3.17513394701687 D[18] - mu_D[18] = 1306
 Cost_Demand[19]: pi[19] + 3.947903284758793 D[19] - mu_D[19] = 1460
 Cost_Demand[20]: pi[20] + 3.442263629314801 D[20] - mu_D[20] = 1353
 Cost_Supply[1]: - pi[1] + 0.5666120595661136 S[1] - mu_S[1]
   = -1.672325536730232
 Cost_Supply[3]: - pi[3] + 0.0168319040251284 S[3] - mu_S[3]
   = -1.7900624198371
 Cost_Supply[4]: - pi[4] + 0.6602349456479445 S[4] - mu_S[4]
   = -1.744237636094756
 Cost_Supply[5]: - pi[5] + 0.8789266321013433 S[5] - mu_S[5]
   = -1.594003960514337
 Cost_Supply[6]: - pi[6] + 0.6404655515707495 S[6] - mu_S[6]
   = -1.323540971414262
 Cost_Supply[10]: - pi[10] + 0.5196433318529052 S[10] - mu_S[10]
   = -1.285765823808691
 Cost_Supply[11]: - pi[11] + 0.338249743585231 S[11] - mu_S[11]
   = -1.620852086194012
 Cost_Supply[12]: - pi[12] + 0.9937180444559331 S[12] - mu_S[12]
   = -1.617821282017934
 Cost_Supply[16]: - pi[16] + 0.2936739604806144 S[16] - mu_S[16]
   = -1.918550279455071
 Cost_Supply[20]: - pi[20] + 0.7811840039113286 S[20] - mu_S[20]
   = -1.625649607767975
Bounds
Binaries
 x[1] x[2] x[7] x[8] x[9] x[10] x[12] x[13] x[14] x[15] x[16] x[17] x[18]
 x[19] x[20]
SOS
 s0:  S1 :: f[2,1]:1 mu_f[2,1]:2
 s1:  S1 :: f[3,2]:1 mu_f[3,2]:2
 s2:  S1 :: f[4,3]:1 mu_f[4,3]:2
 s3:  S1 :: f[5,3]:1 mu_f[5,3]:2
 s4:  S1 :: f[6,5]:1 mu_f[6,5]:2
 s5:  S1 :: f[7,2]:1 mu_f[7,2]:2
 s6:  S1 :: f[8,3]:1 mu_f[8,3]:2
 s7:  S1 :: f[9,2]:1 mu_f[9,2]:2
 s8:  S1 :: f[10,1]:1 mu_f[10,1]:2
 s9:  S1 :: f[11,5]:1 mu_f[11,5]:2
 s10:  S1 :: f[12,7]:1 mu_f[12,7]:2
 s11:  S1 :: f[13,12]:1 mu_f[13,12]:2
 s12:  S1 :: f[14,2]:1 mu_f[14,2]:2
 s13:  S1 :: f[15,14]:1 mu_f[15,14]:2
 s14:  S1 :: f[16,11]:1 mu_f[16,11]:2
 s15:  S1 :: f[17,8]:1 mu_f[17,8]:2
 s16:  S1 :: f[18,6]:1 mu_f[18,6]:2
 s17:  S1 :: f[19,13]:1 mu_f[19,13]:2
 s18:  S1 :: f[20,9]:1 mu_f[20,9]:2
 s19:  S1 :: f[9,16]:1 mu_f[9,16]:2
 s20:  S1 :: f[9,11]:1 mu_f[9,11]:2
 s21:  S1 :: f[10,8]:1 mu_f[10,8]:2
 s22:  S1 :: f[19,5]:1 mu_f[19,5]:2
 s23:  S1 :: f[4,14]:1 mu_f[4,14]:2
 s24:  S1 :: f[14,20]:1 mu_f[14,20]:2
 s25:  S1 :: f[4,20]:1 mu_f[4,20]:2
 s26:  S1 :: f[9,3]:1 mu_f[9,3]:2
 s27:  S1 :: f[1,11]:1 mu_f[1,11]:2
 s28:  S1 :: f[14,7]:1 mu_f[14,7]:2
 s29:  S1 :: f[8,9]:1 mu_f[8,9]:2
 s30:  S1 :: f[10,7]:1 mu_f[10,7]:2
 s31:  S1 :: f[10,9]:1 mu_f[10,9]:2
 s32:  S1 :: f[6,13]:1 mu_f[6,13]:2
 s33:  S1 :: f[5,10]:1 mu_f[5,10]:2
 s34:  S1 :: f[13,10]:1 mu_f[13,10]:2
 s35:  S1 :: D[6]:1 mu_D[6]:2
 s36:  S1 :: D[7]:1 mu_D[7]:2
 s37:  S1 :: D[10]:1 mu_D[10]:2
 s38:  S1 :: D[11]:1 mu_D[11]:2
 s39:  S1 :: D[12]:1 mu_D[12]:2
 s40:  S1 :: D[13]:1 mu_D[13]:2
 s41:  S1 :: D[16]:1 mu_D[16]:2
 s42:  S1 :: D[18]:1 mu_D[18]:2
 s43:  S1 :: D[19]:1 mu_D[19]:2
 s44:  S1 :: D[20]:1 mu_D[20]:2
 s45:  S1 :: S[1]:1 mu_S[1]:2
 s46:  S1 :: S[3]:1 mu_S[3]:2
 s47:  S1 :: S[4]:1 mu_S[4]:2
 s48:  S1 :: S[5]:1 mu_S[5]:2
 s49:  S1 :: S[6]:1 mu_S[6]:2
 s50:  S1 :: S[10]:1 mu_S[10]:2
 s51:  S1 :: S[11]:1 mu_S[11]:2
 s52:  S1 :: S[12]:1 mu_S[12]:2
 s53:  S1 :: S[16]:1 mu_S[16]:2
 s54:  S1 :: S[20]:1 mu_S[20]:2
End
